%Datos
personas = ["dairo", "andres", "fatima","elena", "german"]; %personas que participaran de la foto
next=[|1, 3|]; %la persona en la posición 1 debe estar junto a la persona en la posición 3
separate=[|4, 5|]; %la persona en la posición 4 no debe estar junto a la persona en la posición 5
distance=[|2, 4, 1|]; %la persona en la posición 2 debe estar separada de la persona en la posición 4 como maximo por 1 persona